sat
(:max-memory        18.64
 :memory            17.63
 :num-allocs        670025041
 :rlimit-count      1118411
 :sls-constraints   1695
 :sls-ddfw-flips    746362.00
 :sls-ddfw-reinits  12
 :sls-ddfw-restarts 864
 :sls-ddfw-shifts   320790.00
 :sls.euf-conflict  7230
 :time              0.94
 :total-time        0.94)
